(set-info :Origin "This instance was generated by: BanditFuzz-- an RL fuzzer for SMT solvers" )
(set-info :Author "Joe Scott, Fed Mora, Vijay Ganesh" )
(set-info :Contact "Joe Scott, joseph.scott@uwaterloo.ca")
(set-logic QF_BV)
(declare-const bool_0 Bool)
(declare-const bool_1 Bool)
(declare-const bool_2 Bool)
(declare-const bool_3 Bool)
(declare-const bool_4 Bool)
(declare-const bv_0 (_ BitVec 32))
(declare-const bv_1 (_ BitVec 32))
(declare-const bv_2 (_ BitVec 32))
(declare-const bv_3 (_ BitVec 32))
(declare-const bv_4 (_ BitVec 32))
(assert (xor (or (bvsle #xe0155324  bv_4) (bvsgt #x236a5ccd  bv_1)) (bvsgt (bvmul #x73a300ed  bv_0) (bvsdiv bv_2 bv_1))))
(assert (or (and (and false bool_2) (xor false bool_0)) (bvuge (bvurem bv_2 #xf087f740 ) (bvnor #xc06bc1ab  bv_3))))
(assert (bvuge (bvlshr (bvnand #x64f0fd3b  bv_4) (bvnor bv_2 bv_2)) (bvxnor (bvadd bv_3 bv_4) (bvmul bv_0 bv_1))))
(assert (bvsgt (bvand (bvsrem bv_4 bv_0) (bvsub bv_1 bv_4)) (bvnand (bvxnor #x9ad31699  #x47832aeb ) (bvsub #x830f2d00  bv_3))))
(assert (bvslt (bvmul (bvshl bv_3 bv_2) (bvlshr #x91f4fc19  #xd2f51c89 )) (bvsdiv (bvxor #xec85bb0e  #x20b0fa92 ) (bvashr #xf1628bd9  #xb5b65c35 ))))
(check-sat)
(exit)
